
Gurobi 12.0.2 (win64) logging started Wed Jun  4 16:57:49 2025

Set parameter LogFile to value "C:\Ioana\_uni\honours\slp\algorithm\Main_files\results\others\fatty_acids\Task_016_Sample001_irr_gurobi.log"
Gurobi Optimizer version 12.0.2 build v12.0.2rc0 (win64 - Windows 11.0 (26100.2))

CPU model: Intel(R) Core(TM) Ultra 5 125H, instruction set [SSE2|AVX|AVX2]
Thread count: 14 physical cores, 18 logical processors, using up to 18 threads

Non-default parameters:
TimeLimit  2200

Optimize a model with 47226 rows, 34498 columns and 146685 nonzeros
Model fingerprint: 0xec196348
Variable types: 17253 continuous, 17245 integer (17245 binary)
Coefficient statistics:
  Matrix range     [1e-04, 8e+04]
  Objective range  [2e-04, 9e-01]
  Bounds range     [1e+00, 1e+03]
  RHS range        [1e+00, 1e+00]
Presolve removed 30782 rows and 21546 columns
Presolve time: 0.50s
Presolved: 16444 rows, 12952 columns, 54660 nonzeros
Variable types: 6410 continuous, 6542 integer (6542 binary)
Found heuristic solution: objective 18.3758796

Root relaxation: objective 9.005718e-01, 12 iterations, 0.03 seconds (0.00 work units)

    Nodes    |    Current Node    |     Objective Bounds      |     Work
 Expl Unexpl |  Obj  Depth IntInf | Incumbent    BestBd   Gap | It/Node Time

     0     0    0.90057    0    1   18.37588    0.90057  95.1%     -    0s
H    0     0                       0.9148432    0.90057  1.56%     -    0s
     0     0    0.90057    0    1    0.91484    0.90057  1.56%     -    0s

Explored 1 nodes (12 simplex iterations) in 0.69 seconds (0.46 work units)
Thread count was 18 (of 18 available processors)

Solution count 2: 0.914843 18.3759 

Optimal solution found (tolerance 1.00e-04)
Best objective 9.148431827232e-01, best bound 9.148431827232e-01, gap 0.0000%

Gurobi 12.0.2 (win64) logging started Thu Jun  5 15:34:09 2025

Set parameter LogFile to value "C:\Ioana\_uni\honours\slp\algorithm\Main_files\results\others\fatty_acids\Task_016_Sample001_irr_gurobi.log"
Gurobi Optimizer version 12.0.2 build v12.0.2rc0 (win64 - Windows 11.0 (26100.2))

CPU model: Intel(R) Core(TM) Ultra 5 125H, instruction set [SSE2|AVX|AVX2]
Thread count: 14 physical cores, 18 logical processors, using up to 18 threads

Non-default parameters:
TimeLimit  2200

Optimize a model with 47226 rows, 34498 columns and 146685 nonzeros
Model fingerprint: 0xec196348
Variable types: 17253 continuous, 17245 integer (17245 binary)
Coefficient statistics:
  Matrix range     [1e-04, 8e+04]
  Objective range  [2e-04, 9e-01]
  Bounds range     [1e+00, 1e+03]
  RHS range        [1e+00, 1e+00]
Presolve removed 30782 rows and 21546 columns
Presolve time: 0.51s
Presolved: 16444 rows, 12952 columns, 54660 nonzeros
Variable types: 6410 continuous, 6542 integer (6542 binary)
Found heuristic solution: objective 18.3758796

Root relaxation: objective 9.005718e-01, 12 iterations, 0.01 seconds (0.00 work units)

    Nodes    |    Current Node    |     Objective Bounds      |     Work
 Expl Unexpl |  Obj  Depth IntInf | Incumbent    BestBd   Gap | It/Node Time

     0     0    0.90057    0    1   18.37588    0.90057  95.1%     -    0s
H    0     0                       0.9148432    0.90057  1.56%     -    0s
     0     0    0.90057    0    1    0.91484    0.90057  1.56%     -    0s

Explored 1 nodes (12 simplex iterations) in 0.70 seconds (0.46 work units)
Thread count was 18 (of 18 available processors)

Solution count 2: 0.914843 18.3759 

Optimal solution found (tolerance 1.00e-04)
Best objective 9.148431827232e-01, best bound 9.148431827232e-01, gap 0.0000%
